SAT
-35 21 91 85 -2 -61 -89 60 56 -83 12 -13 81 17 -38 -65 18 28 24 99 -71 -94 10 14 29 69 51 -93 -19 -90 -32 -8 4 80 -74 -7 26 -46 96 -67 72 53 48 -66 78 87 -36 59 16 54 58 41 -33 -100 75 -20 -79 68 47 27 45 -88 43 -84 76 97 86 -30 70 -37 -15 44 73 3 -64 49 62 25 23 -57 31 -1 -42 52 95 -39 50 -22 -98 92 9 82 -55 -63 -11 5 -77 34 6 -40 0
